
A = 8;
T = 61;
X = 17;
Y = 17;
Z = 3;
building = array2d(0..16, 0..16,
                   [0, 0, 0, 0, 0, 0, 0, 0, 0, 0, 0, 0, 0, 0, 0, 0, 0,
                    0, 2, 1, 0, 0, 0, 1, 1, 0, 0, 2, 2, 0, 2, 1, 2, 0,
                    0, 2, 2, 0, 2, 1, 2, 0, 1, 2, 2, 1, 0, 1, 2, 0, 0,
                    0, 1, 1, 0, 2, 2, 0, 2, 0, 1, 2, 1, 1, 2, 0, 0, 0,
                    0, 0, 2, 0, 2, 2, 1, 0, 1, 2, 0, 2, 2, 2, 0, 2, 0,
                    0, 2, 0, 1, 1, 1, 2, 0, 2, 0, 1, 2, 0, 0, 1, 2, 0,
                    0, 1, 1, 1, 1, 1, 0, 1, 2, 0, 2, 2, 2, 1, 2, 0, 0,
                    0, 2, 0, 1, 0, 1, 0, 2, 1, 0, 0, 0, 0, 0, 0, 0, 0,
                    0, 0, 0, 0, 0, 0, 0, 0, 0, 0, 0, 0, 0, 0, 0, 0, 0,
                    0, 0, 0, 0, 0, 0, 0, 0, 0, 0, 0, 0, 0, 0, 0, 0, 0,
                    0, 0, 0, 0, 0, 0, 0, 0, 0, 0, 0, 0, 0, 0, 0, 0, 0,
                    0, 0, 0, 0, 0, 0, 0, 0, 0, 0, 0, 0, 0, 0, 0, 0, 0,
                    0, 0, 0, 0, 0, 0, 0, 0, 0, 0, 0, 0, 0, 0, 0, 0, 0,
                    0, 0, 0, 0, 0, 0, 0, 0, 0, 0, 0, 0, 0, 0, 0, 0, 0,
                    0, 0, 0, 0, 0, 0, 0, 0, 0, 0, 0, 0, 0, 0, 0, 0, 0,
                    0, 0, 0, 0, 0, 0, 0, 0, 0, 0, 0, 0, 0, 0, 0, 0, 0,
                    0, 0, 0, 0, 0, 0, 0, 0, 0, 0, 0, 0, 0, 0, 0, 0, 0]);
